/*********************************************
 * OPL 12.6.0.0 Data
 * Author: Adrian Rodriguez Bazaga, Pau Rodriguez Esmerats
 * Creation Date: 06/12/2017 at 23:03:03
 *********************************************/

nNurses=218;
maxConsec=2;
maxPresence=7;
maxHours=5;
minHours=1;
hours=24;
demand= [42 42 48 58 42 48 58 43 36 21 5 7 7 9 9 8 5 4 4 2 40 59 21 54  ];
